proyfinal/src/viki/013/experimentInOfficeAgust.take6.output/37459719-e0e8-4851-858d-80cf45cb5e47.als.dat
{'cnf.clauses': '118081',
 'cnf.totvars': '69608',
 'conflict literals': '175',
 'conflicts': '36',
 'decisions': '2538',
 'memused.mb': '17.89',
 'outcome': 'UNSAT',
 'propagations': '73387',
 'restarts': '1',
 'solver.msecs': 45,
 'task.msecs': 131}
