proyfinal/src/viki/013/experimentInOfficeAgust.take6.output/37459719-e0e8-4851-858d-80cf45cb5e47.als.out
Reading from standard input... Use '--help' for help.
============================[ Problem Statistics ]=============================
|                                                                             |
|  Number of variables:         69608                                         |
|  Number of clauses:          118081                                         |
|  Parse time:                   0.03 s                                       |
|                                                                             |
============================[ Search Statistics ]==============================
| Conflicts |          ORIGINAL         |          LEARNT          | Progress |
|           |    Vars  Clauses Literals |    Limit  Clauses Lit/Cl |          |
===============================================================================
===============================================================================
restarts              : 1
conflicts             : 36             (787 /sec)
decisions             : 2538           (0.00 % random) (55507 /sec)
propagations          : 73387          (1605000 /sec)
conflict literals     : 175            (18.60 % deleted)
Memory used           : 17.89 MB
CPU time              : 0.045724 s

UNSATISFIABLE
